============================[ Problem Statistics ]=============================|                                                                             ||  Number of variables:          4242                                         ||  Number of clauses:            9871                                         ||  Parse time:                   0.28 s                                       ||                                                                             |============================[ Search Statistics ]==============================| Conflicts |          ORIGINAL         |          LEARNT          | Progress ||           |    Vars  Clauses Literals |    Limit  Clauses Lit/Cl |          |===============================================================================|       100 |    1591     6076   414317 |     2227      100     53 | 62.501 % |===============================================================================restarts              : 2conflicts             : 158            (369 /sec)decisions             : 327            (0.00 % random) (764 /sec)propagations          : 9974           (23304 /sec)conflict literals     : 10405          (95.36 % deleted)CPU time              : 0.428 sSATISFIABLE